0 59848879 
1 59694022 
2 59240208 
3 55802268 
4 52848236 
5 52468939 
6 52461807 
7 51310568 
8 51271829 
9 50826280 
10 50791746 
11 50312522 
12 50028371 
13 49465804 
14 49208516 
15 49205512 
16 48933259 
17 48745820 
18 48722806 
19 47759058 
20 47756453 
21 47538634 
22 47515599 
23 46147075 
24 45058475 
25 45055401 
26 44838954 
27 44826025 
28 44733354 
29 44733354 

